Version identifier: 20.1.0.0 | 2020-11-10 | 9bedb6d68
Tried aggregator 2 times.
MIP Presolve eliminated 1370 rows and 827 columns.
MIP Presolve modified 2556 coefficients.
Aggregator did 141 substitutions.
Reduced MIP has 1045 rows, 839 columns, and 3315 nonzeros.
Reduced MIP has 190 binaries, 649 generals, 0 SOSs, and 0 indicators.
Presolve time = 0.01 sec. (5.52 ticks)
Found incumbent of value 64.000000 after 0.02 sec. (9.51 ticks)
Probing fixed 30 vars, tightened 261 bounds.
Probing time = 0.00 sec. (0.96 ticks)
Tried aggregator 1 time.
Detecting symmetries...
MIP Presolve eliminated 450 rows and 30 columns.
MIP Presolve modified 41 coefficients.
Reduced MIP has 595 rows, 809 columns, and 1935 nonzeros.
Reduced MIP has 250 binaries, 559 generals, 0 SOSs, and 0 indicators.
Presolve time = 0.00 sec. (2.22 ticks)
Probing time = 0.00 sec. (0.14 ticks)
Clique table members: 1.
MIP emphasis: balance optimality and feasibility.
MIP search method: dynamic search.
Parallel mode: deterministic, using up to 24 threads.
Root relaxation solution time = 0.00 sec. (1.69 ticks)

        Nodes                                         Cuts/
   Node  Left     Objective  IInf  Best Integer    Best Bound    ItCnt     Gap

*     0+    0                           64.0000        0.0000           100.00%
      0     0        0.0000    39       64.0000        0.0000      180  100.00%
      0     0        2.7649   220       64.0000      Cuts: 69      490   95.68%
      0     0        3.3333   148       64.0000      Cuts: 88      545   94.79%
      0     0        3.3333   127       64.0000      Cuts: 50      594   94.79%
      0     0        3.3478   129       64.0000      Cuts: 47      629   94.77%
      0     0        3.3478   155       64.0000      Cuts: 53      671   94.77%
      0     0        3.3571    59       64.0000      Cuts: 32      726   94.75%
*     0+    0                           19.0000        3.3571            82.33%
      0     0        3.3571    78       19.0000      Cuts: 31      746   82.33%
*     0+    0                           17.0000        3.3571            80.25%
*     0+    0                            7.0000        3.3571            52.04%
      0     0        cutoff              7.0000        7.0000      746    0.00%
Elapsed time = 0.16 sec. (82.74 ticks, tree = 0.01 MB, solutions = 4)

Implied bound cuts applied:  3
Flow cuts applied:  1
Mixed integer rounding cuts applied:  4
Zero-half cuts applied:  46
Lift and project cuts applied:  2
Gomory fractional cuts applied:  7

Root node processing (before b&c):
  Real time             =    0.16 sec. (82.83 ticks)
Parallel b&c, 24 threads:
  Real time             =    0.00 sec. (0.00 ticks)
  Sync time (average)   =    0.00 sec.
  Wait time (average)   =    0.00 sec.
                          ------------
Total (root+branch&cut) =    0.16 sec. (82.83 ticks)

Solution status = Optimal
Solution LB = 7
Solution UB = 7
Runtime = 0.168307 seconds
	Command being timed: "/home/min/git_repos/CS598MEBProject/CNT-ILP/build/cnt -s 2 ./output/k6_n30/simC_c1_k6_n30_u2_s1_del04.input-right.cnp"
	User time (seconds): 0.73
	System time (seconds): 0.04
	Percent of CPU this job got: 418%
	Elapsed (wall clock) time (h:mm:ss or m:ss): 0:00.18
	Average shared text size (kbytes): 0
	Average unshared data size (kbytes): 0
	Average stack size (kbytes): 0
	Average total size (kbytes): 0
	Maximum resident set size (kbytes): 60756
	Average resident set size (kbytes): 0
	Major (requiring I/O) page faults: 0
	Minor (reclaiming a frame) page faults: 12219
	Voluntary context switches: 1563
	Involuntary context switches: 74
	Swaps: 0
	File system inputs: 0
	File system outputs: 16
	Socket messages sent: 0
	Socket messages received: 0
	Signals delivered: 0
	Page size (bytes): 4096
	Exit status: 0
